c "134633.clq"
p edge 201 2960
e 1 17
e 1 18
e 1 19
e 1 30
e 1 32
e 1 33
e 1 36
e 1 37
e 1 39
e 1 44
e 1 52
e 1 56
e 1 68
e 1 77
e 1 88
e 1 107
e 1 113
e 1 138
e 1 153
e 1 158
e 1 161
e 2 17
e 2 18
e 2 19
e 2 20
e 2 21
e 2 22
e 2 23
e 2 24
e 2 25
e 2 26
e 2 27
e 2 28
e 2 30
e 2 35
e 2 38
e 2 40
e 2 42
e 2 44
e 2 49
e 2 51
e 2 58
e 2 59
e 2 63
e 2 66
e 2 77
e 2 81
e 2 82
e 2 83
e 2 84
e 2 86
e 2 88
e 2 95
e 2 97
e 2 102
e 2 103
e 2 115
e 2 118
e 2 146
e 2 147
e 2 149
e 2 152
e 2 153
e 2 165
e 2 187
e 2 192
e 2 196
e 3 17
e 3 18
e 3 19
e 3 20
e 3 21
e 3 22
e 3 26
e 3 27
e 3 29
e 3 34
e 3 38
e 3 40
e 3 42
e 3 45
e 3 51
e 3 52
e 3 65
e 3 67
e 3 69
e 3 75
e 3 76
e 3 90
e 3 91
e 3 97
e 3 100
e 3 102
e 3 107
e 3 127
e 3 142
e 3 154
e 3 157
e 3 164
e 3 188
e 4 17
e 4 18
e 4 19
e 4 20
e 4 21
e 4 22
e 4 24
e 4 28
e 4 29
e 4 30
e 4 35
e 4 36
e 4 41
e 4 45
e 4 48
e 4 68
e 4 71
e 4 78
e 4 80
e 4 81
e 4 84
e 4 86
e 4 96
e 4 97
e 4 118
e 4 124
e 4 129
e 4 131
e 4 132
e 4 135
e 4 139
e 4 143
e 4 157
e 4 159
e 4 171
e 4 173
e 4 176
e 4 185
e 4 188
e 4 189
e 4 190
e 5 17
e 5 18
e 5 19
e 5 20
e 5 21
e 5 22
e 5 24
e 5 25
e 5 27
e 5 28
e 5 33
e 5 34
e 5 36
e 5 41
e 5 57
e 5 63
e 5 67
e 5 79
e 5 81
e 5 83
e 5 86
e 5 87
e 5 91
e 5 101
e 5 102
e 5 114
e 5 128
e 5 134
e 5 137
e 5 145
e 5 165
e 5 172
e 5 174
e 5 199
e 6 17
e 6 18
e 6 19
e 6 21
e 6 22
e 6 23
e 6 24
e 6 25
e 6 26
e 6 27
e 6 28
e 6 29
e 6 30
e 6 31
e 6 35
e 6 37
e 6 46
e 6 51
e 6 53
e 6 56
e 6 59
e 6 67
e 6 70
e 6 77
e 6 78
e 6 79
e 6 86
e 6 89
e 6 100
e 6 106
e 6 114
e 6 118
e 6 127
e 6 140
e 6 143
e 6 165
e 6 178
e 6 198
e 7 17
e 7 18
e 7 20
e 7 21
e 7 22
e 7 23
e 7 24
e 7 29
e 7 43
e 7 46
e 7 47
e 7 54
e 7 61
e 7 66
e 7 70
e 7 102
e 7 110
e 7 118
e 7 121
e 7 139
e 7 186
e 7 188
e 7 190
e 7 195
e 7 197
e 8 17
e 8 18
e 8 20
e 8 21
e 8 24
e 8 27
e 8 29
e 8 31
e 8 33
e 8 36
e 8 37
e 8 38
e 8 39
e 8 41
e 8 43
e 8 44
e 8 46
e 8 47
e 8 48
e 8 53
e 8 54
e 8 55
e 8 56
e 8 57
e 8 58
e 8 63
e 8 66
e 8 68
e 8 73
e 8 77
e 8 81
e 8 82
e 8 83
e 8 87
e 8 93
e 8 103
e 8 104
e 8 108
e 8 109
e 8 110
e 8 125
e 8 126
e 8 140
e 8 150
e 8 159
e 8 167
e 8 172
e 8 173
e 8 188
e 8 191
e 8 201
e 9 17
e 9 18
e 9 19
e 9 20
e 9 22
e 9 23
e 9 24
e 9 26
e 9 29
e 9 30
e 9 31
e 9 32
e 9 33
e 9 35
e 9 38
e 9 40
e 9 48
e 9 51
e 9 55
e 9 57
e 9 61
e 9 84
e 9 87
e 9 90
e 9 91
e 9 93
e 9 110
e 9 111
e 9 113
e 9 117
e 9 121
e 9 125
e 9 128
e 9 139
e 9 142
e 9 143
e 9 151
e 9 164
e 9 177
e 9 181
e 9 182
e 9 194
e 9 195
e 9 197
e 10 17
e 10 19
e 10 20
e 10 21
e 10 22
e 10 23
e 10 25
e 10 26
e 10 27
e 10 34
e 10 35
e 10 37
e 10 38
e 10 40
e 10 42
e 10 43
e 10 44
e 10 47
e 10 48
e 10 52
e 10 56
e 10 60
e 10 61
e 10 62
e 10 65
e 10 68
e 10 70
e 10 82
e 10 94
e 10 96
e 10 97
e 10 98
e 10 103
e 10 114
e 10 122
e 10 128
e 10 136
e 10 140
e 10 141
e 10 143
e 10 151
e 10 163
e 10 177
e 10 185
e 10 199
e 11 17
e 11 18
e 11 19
e 11 20
e 11 22
e 11 23
e 11 24
e 11 25
e 11 26
e 11 27
e 11 29
e 11 30
e 11 31
e 11 33
e 11 36
e 11 37
e 11 38
e 11 44
e 11 45
e 11 47
e 11 52
e 11 53
e 11 61
e 11 62
e 11 63
e 11 78
e 11 79
e 11 91
e 11 92
e 11 95
e 11 96
e 11 98
e 11 108
e 11 112
e 11 118
e 11 119
e 11 123
e 11 126
e 11 135
e 11 136
e 11 137
e 11 142
e 11 144
e 11 152
e 11 155
e 11 170
e 11 177
e 11 196
e 11 198
e 12 17
e 12 18
e 12 19
e 12 20
e 12 21
e 12 23
e 12 25
e 12 28
e 12 39
e 12 41
e 12 42
e 12 72
e 12 87
e 12 88
e 12 90
e 12 94
e 12 127
e 12 142
e 12 150
e 12 174
e 12 176
e 12 178
e 12 179
e 12 196
e 13 17
e 13 18
e 13 19
e 13 20
e 13 24
e 13 26
e 13 28
e 13 30
e 13 34
e 13 35
e 13 36
e 13 37
e 13 38
e 13 40
e 13 51
e 13 55
e 13 56
e 13 57
e 13 68
e 13 88
e 13 91
e 13 105
e 13 109
e 13 112
e 13 138
e 13 174
e 13 186
e 13 200
e 14 17
e 14 18
e 14 19
e 14 20
e 14 21
e 14 22
e 14 23
e 14 24
e 14 26
e 14 28
e 14 29
e 14 31
e 14 33
e 14 37
e 14 43
e 14 45
e 14 47
e 14 48
e 14 61
e 14 69
e 14 106
e 14 125
e 14 127
e 14 144
e 14 150
e 14 154
e 14 157
e 14 159
e 14 193
e 15 17
e 15 18
e 15 19
e 15 20
e 15 21
e 15 23
e 15 25
e 15 28
e 15 32
e 15 40
e 15 41
e 15 59
e 15 61
e 15 65
e 15 71
e 15 75
e 15 76
e 15 82
e 15 85
e 15 87
e 15 95
e 15 105
e 15 108
e 15 112
e 15 115
e 15 119
e 15 122
e 15 124
e 15 129
e 15 136
e 15 139
e 15 145
e 15 146
e 15 185
e 15 192
e 16 17
e 16 18
e 16 19
e 16 21
e 16 22
e 16 23
e 16 25
e 16 29
e 16 30
e 16 32
e 16 35
e 16 48
e 16 51
e 16 53
e 16 54
e 16 60
e 16 64
e 16 69
e 16 73
e 16 75
e 16 80
e 16 81
e 16 90
e 16 95
e 16 99
e 16 101
e 16 111
e 16 112
e 16 120
e 16 121
e 16 125
e 16 126
e 16 147
e 16 153
e 16 169
e 16 185
e 16 201
e 17 18
e 17 19
e 17 20
e 17 21
e 17 22
e 17 23
e 17 24
e 17 25
e 17 26
e 17 27
e 17 28
e 17 30
e 17 31
e 17 32
e 17 34
e 17 35
e 17 36
e 17 38
e 17 39
e 17 41
e 17 42
e 17 43
e 17 44
e 17 46
e 17 50
e 17 51
e 17 52
e 17 54
e 17 55
e 17 56
e 17 57
e 17 58
e 17 59
e 17 60
e 17 63
e 17 66
e 17 69
e 17 71
e 17 72
e 17 76
e 17 77
e 17 79
e 17 87
e 17 88
e 17 89
e 17 91
e 17 94
e 17 100
e 17 102
e 17 103
e 17 104
e 17 106
e 17 107
e 17 111
e 17 114
e 17 119
e 17 130
e 17 131
e 17 133
e 17 134
e 17 137
e 17 139
e 17 140
e 17 145
e 17 152
e 17 153
e 17 155
e 17 157
e 17 159
e 17 176
e 17 177
e 17 178
e 17 181
e 17 183
e 17 186
e 17 187
e 17 193
e 17 196
e 18 19
e 18 20
e 18 21
e 18 22
e 18 23
e 18 24
e 18 25
e 18 26
e 18 27
e 18 28
e 18 30
e 18 31
e 18 33
e 18 34
e 18 36
e 18 38
e 18 43
e 18 45
e 18 47
e 18 49
e 18 50
e 18 53
e 18 56
e 18 60
e 18 64
e 18 65
e 18 66
e 18 70
e 18 72
e 18 74
e 18 79
e 18 81
e 18 83
e 18 87
e 18 90
e 18 92
e 18 97
e 18 101
e 18 103
e 18 107
e 18 116
e 18 117
e 18 129
e 18 132
e 18 134
e 18 135
e 18 139
e 18 145
e 18 149
e 18 150
e 18 151
e 18 158
e 18 160
e 18 172
e 18 181
e 18 184
e 18 187
e 18 188
e 18 190
e 18 191
e 18 194
e 18 196
e 19 20
e 19 21
e 19 22
e 19 23
e 19 24
e 19 25
e 19 26
e 19 27
e 19 28
e 19 29
e 19 30
e 19 31
e 19 32
e 19 33
e 19 34
e 19 35
e 19 37
e 19 39
e 19 41
e 19 42
e 19 44
e 19 45
e 19 47
e 19 48
e 19 50
e 19 53
e 19 55
e 19 56
e 19 57
e 19 61
e 19 63
e 19 65
e 19 69
e 19 70
e 19 73
e 19 76
e 19 77
e 19 85
e 19 86
e 19 88
e 19 90
e 19 92
e 19 94
e 19 95
e 19 98
e 19 99
e 19 100
e 19 101
e 19 103
e 19 104
e 19 106
e 19 107
e 19 108
e 19 110
e 19 120
e 19 125
e 19 126
e 19 127
e 19 128
e 19 129
e 19 132
e 19 134
e 19 138
e 19 141
e 19 142
e 19 143
e 19 144
e 19 146
e 19 148
e 19 155
e 19 162
e 19 167
e 19 176
e 19 184
e 19 188
e 19 189
e 19 191
e 19 192
e 19 193
e 19 200
e 20 21
e 20 22
e 20 23
e 20 25
e 20 26
e 20 27
e 20 29
e 20 31
e 20 32
e 20 34
e 20 35
e 20 36
e 20 38
e 20 40
e 20 41
e 20 42
e 20 44
e 20 45
e 20 51
e 20 53
e 20 57
e 20 58
e 20 60
e 20 62
e 20 63
e 20 65
e 20 70
e 20 74
e 20 78
e 20 79
e 20 82
e 20 85
e 20 87
e 20 88
e 20 89
e 20 90
e 20 94
e 20 98
e 20 100
e 20 104
e 20 106
e 20 113
e 20 117
e 20 127
e 20 132
e 20 134
e 20 139
e 20 145
e 20 151
e 20 153
e 20 161
e 20 165
e 20 166
e 20 169
e 20 171
e 20 174
e 20 178
e 20 185
e 20 186
e 20 190
e 20 192
e 20 200
e 21 22
e 21 23
e 21 24
e 21 25
e 21 27
e 21 28
e 21 29
e 21 32
e 21 33
e 21 37
e 21 38
e 21 39
e 21 43
e 21 44
e 21 45
e 21 46
e 21 47
e 21 49
e 21 50
e 21 51
e 21 53
e 21 54
e 21 57
e 21 58
e 21 59
e 21 62
e 21 66
e 21 67
e 21 68
e 21 69
e 21 70
e 21 71
e 21 72
e 21 74
e 21 79
e 21 80
e 21 81
e 21 91
e 21 93
e 21 95
e 21 98
e 21 100
e 21 103
e 21 106
e 21 118
e 21 122
e 21 127
e 21 129
e 21 132
e 21 138
e 21 146
e 21 147
e 21 149
e 21 152
e 21 153
e 21 156
e 21 157
e 21 158
e 21 161
e 21 169
e 21 172
e 21 175
e 21 176
e 21 187
e 21 199
e 22 23
e 22 24
e 22 25
e 22 26
e 22 27
e 22 28
e 22 39
e 22 42
e 22 46
e 22 47
e 22 50
e 22 62
e 22 65
e 22 72
e 22 73
e 22 75
e 22 78
e 22 80
e 22 81
e 22 88
e 22 96
e 22 98
e 22 99
e 22 105
e 22 109
e 22 110
e 22 111
e 22 116
e 22 127
e 22 130
e 22 134
e 22 137
e 22 139
e 22 142
e 22 159
e 22 171
e 22 182
e 22 189
e 22 195
e 23 24
e 23 25
e 23 26
e 23 27
e 23 28
e 23 29
e 23 30
e 23 31
e 23 33
e 23 34
e 23 35
e 23 36
e 23 37
e 23 38
e 23 39
e 23 40
e 23 42
e 23 44
e 23 45
e 23 46
e 23 51
e 23 53
e 23 54
e 23 55
e 23 58
e 23 59
e 23 63
e 23 64
e 23 66
e 23 69
e 23 70
e 23 76
e 23 77
e 23 80
e 23 82
e 23 83
e 23 87
e 23 93
e 23 99
e 23 103
e 23 110
e 23 113
e 23 116
e 23 117
e 23 130
e 23 133
e 23 151
e 23 155
e 23 156
e 23 173
e 23 185
e 24 25
e 24 26
e 24 27
e 24 28
e 24 29
e 24 30
e 24 31
e 24 32
e 24 34
e 24 35
e 24 39
e 24 40
e 24 41
e 24 46
e 24 47
e 24 49
e 24 50
e 24 52
e 24 58
e 24 59
e 24 62
e 24 74
e 24 75
e 24 80
e 24 81
e 24 84
e 24 85
e 24 86
e 24 89
e 24 92
e 24 95
e 24 100
e 24 103
e 24 112
e 24 114
e 24 117
e 24 118
e 24 124
e 24 127
e 24 130
e 24 140
e 24 144
e 24 148
e 24 149
e 24 150
e 24 151
e 24 159
e 24 160
e 24 161
e 24 162
e 24 163
e 24 164
e 24 170
e 24 171
e 24 180
e 24 187
e 25 26
e 25 29
e 25 30
e 25 31
e 25 32
e 25 33
e 25 34
e 25 35
e 25 36
e 25 38
e 25 40
e 25 43
e 25 46
e 25 48
e 25 50
e 25 51
e 25 63
e 25 66
e 25 71
e 25 75
e 25 82
e 25 83
e 25 85
e 25 94
e 25 96
e 25 98
e 25 102
e 25 110
e 25 111
e 25 121
e 25 126
e 25 134
e 25 137
e 25 141
e 25 147
e 25 154
e 25 162
e 25 169
e 25 170
e 25 172
e 25 173
e 25 180
e 25 181
e 25 185
e 25 187
e 25 190
e 25 193
e 25 194
e 25 196
e 25 198
e 25 201
e 26 27
e 26 30
e 26 31
e 26 32
e 26 34
e 26 37
e 26 39
e 26 42
e 26 43
e 26 44
e 26 49
e 26 53
e 26 54
e 26 55
e 26 56
e 26 59
e 26 60
e 26 62
e 26 63
e 26 67
e 26 71
e 26 75
e 26 77
e 26 85
e 26 89
e 26 92
e 26 93
e 26 97
e 26 105
e 26 106
e 26 107
e 26 108
e 26 109
e 26 120
e 26 128
e 26 134
e 26 138
e 26 142
e 26 146
e 26 158
e 26 160
e 26 170
e 26 179
e 26 189
e 27 28
e 27 30
e 27 31
e 27 32
e 27 34
e 27 35
e 27 36
e 27 37
e 27 40
e 27 44
e 27 45
e 27 46
e 27 49
e 27 50
e 27 51
e 27 54
e 27 55
e 27 58
e 27 63
e 27 70
e 27 71
e 27 76
e 27 78
e 27 82
e 27 101
e 27 109
e 27 114
e 27 115
e 27 131
e 27 135
e 27 137
e 27 142
e 27 147
e 27 148
e 27 156
e 27 176
e 27 178
e 27 182
e 27 193
e 27 196
e 27 198
e 28 29
e 28 32
e 28 33
e 28 34
e 28 39
e 28 41
e 28 48
e 28 51
e 28 59
e 28 60
e 28 68
e 28 71
e 28 75
e 28 76
e 28 78
e 28 100
e 28 102
e 28 107
e 28 116
e 28 117
e 28 121
e 28 129
e 28 138
e 28 144
e 28 151
e 28 152
e 28 163
e 28 175
e 28 186
e 28 192
e 28 195
e 28 198
e 29 31
e 29 32
e 29 33
e 29 36
e 29 37
e 29 39
e 29 40
e 29 41
e 29 42
e 29 47
e 29 49
e 29 52
e 29 53
e 29 54
e 29 55
e 29 56
e 29 58
e 29 68
e 29 69
e 29 70
e 29 71
e 29 73
e 29 74
e 29 75
e 29 77
e 29 80
e 29 82
e 29 83
e 29 85
e 29 86
e 29 89
e 29 91
e 29 100
e 29 105
e 29 106
e 29 107
e 29 108
e 29 115
e 29 126
e 29 127
e 29 134
e 29 135
e 29 136
e 29 144
e 29 146
e 29 147
e 29 151
e 29 155
e 29 156
e 29 163
e 29 164
e 29 165
e 29 167
e 29 168
e 29 170
e 29 174
e 29 176
e 29 198
e 29 199
e 29 201
e 30 31
e 30 32
e 30 33
e 30 35
e 30 37
e 30 38
e 30 40
e 30 41
e 30 45
e 30 46
e 30 49
e 30 50
e 30 52
e 30 56
e 30 57
e 30 60
e 30 61
e 30 62
e 30 66
e 30 67
e 30 68
e 30 73
e 30 76
e 30 81
e 30 85
e 30 88
e 30 91
e 30 94
e 30 95
e 30 97
e 30 99
e 30 109
e 30 110
e 30 112
e 30 113
e 30 114
e 30 116
e 30 118
e 30 120
e 30 121
e 30 128
e 30 130
e 30 136
e 30 137
e 30 148
e 30 151
e 30 155
e 30 161
e 30 162
e 30 171
e 30 174
e 30 175
e 30 176
e 30 185
e 31 32
e 31 33
e 31 36
e 31 37
e 31 39
e 31 42
e 31 43
e 31 44
e 31 47
e 31 48
e 31 49
e 31 52
e 31 53
e 31 60
e 31 62
e 31 64
e 31 66
e 31 67
e 31 79
e 31 87
e 31 93
e 31 96
e 31 108
e 31 110
e 31 112
e 31 116
e 31 118
e 31 122
e 31 123
e 31 130
e 31 133
e 31 138
e 31 139
e 31 145
e 31 153
e 31 171
e 31 174
e 31 183
e 31 195
e 32 33
e 32 34
e 32 35
e 32 36
e 32 39
e 32 42
e 32 43
e 32 44
e 32 45
e 32 46
e 32 54
e 32 55
e 32 57
e 32 64
e 32 65
e 32 66
e 32 69
e 32 70
e 32 72
e 32 74
e 32 78
e 32 93
e 32 95
e 32 101
e 32 104
e 32 108
e 32 111
e 32 124
e 32 130
e 32 133
e 32 136
e 32 137
e 32 157
e 32 158
e 32 160
e 32 165
e 32 177
e 32 188
e 32 190
e 32 195
e 32 200
e 33 34
e 33 40
e 33 41
e 33 43
e 33 49
e 33 52
e 33 54
e 33 61
e 33 62
e 33 64
e 33 69
e 33 72
e 33 73
e 33 75
e 33 79
e 33 82
e 33 83
e 33 84
e 33 88
e 33 96
e 33 99
e 33 105
e 33 113
e 33 128
e 33 131
e 33 132
e 33 135
e 33 136
e 33 140
e 33 158
e 33 165
e 33 166
e 33 176
e 34 36
e 34 40
e 34 41
e 34 42
e 34 43
e 34 46
e 34 49
e 34 53
e 34 55
e 34 61
e 34 63
e 34 64
e 34 73
e 34 76
e 34 77
e 34 78
e 34 80
e 34 81
e 34 84
e 34 88
e 34 91
e 34 92
e 34 96
e 34 101
e 34 107
e 34 112
e 34 118
e 34 136
e 34 137
e 34 140
e 34 141
e 34 147
e 34 148
e 34 156
e 34 157
e 34 160
e 34 161
e 34 166
e 34 171
e 34 175
e 34 185
e 34 191
e 35 37
e 35 38
e 35 39
e 35 45
e 35 46
e 35 52
e 35 56
e 35 60
e 35 64
e 35 65
e 35 71
e 35 82
e 35 83
e 35 89
e 35 90
e 35 97
e 35 101
e 35 117
e 35 119
e 35 120
e 35 121
e 35 124
e 35 133
e 35 135
e 35 136
e 35 140
e 35 141
e 35 142
e 35 154
e 35 156
e 35 159
e 35 174
e 35 179
e 35 186
e 35 187
e 35 194
e 35 199
e 36 40
e 36 42
e 36 43
e 36 45
e 36 47
e 36 48
e 36 53
e 36 54
e 36 55
e 36 58
e 36 60
e 36 61
e 36 64
e 36 68
e 36 77
e 36 79
e 36 82
e 36 83
e 36 86
e 36 89
e 36 91
e 36 93
e 36 94
e 36 96
e 36 115
e 36 127
e 36 133
e 36 136
e 36 152
e 36 166
e 36 168
e 36 180
e 36 189
e 36 194
e 36 201
e 37 38
e 37 39
e 37 48
e 37 49
e 37 50
e 37 55
e 37 56
e 37 61
e 37 66
e 37 68
e 37 73
e 37 76
e 37 79
e 37 80
e 37 83
e 37 84
e 37 85
e 37 95
e 37 98
e 37 101
e 37 113
e 37 118
e 37 121
e 37 122
e 37 125
e 37 126
e 37 149
e 37 156
e 37 171
e 37 176
e 37 177
e 38 41
e 38 42
e 38 44
e 38 45
e 38 47
e 38 49
e 38 50
e 38 62
e 38 67
e 38 73
e 38 74
e 38 77
e 38 78
e 38 84
e 38 89
e 38 98
e 38 99
e 38 100
e 38 102
e 38 104
e 38 106
e 38 111
e 38 115
e 38 116
e 38 130
e 38 136
e 38 140
e 38 141
e 38 143
e 38 162
e 38 176
e 38 177
e 38 181
e 38 186
e 38 192
e 39 43
e 39 47
e 39 52
e 39 54
e 39 56
e 39 57
e 39 58
e 39 66
e 39 69
e 39 88
e 39 98
e 39 101
e 39 103
e 39 109
e 39 127
e 39 129
e 39 146
e 39 149
e 39 164
e 39 169
e 40 41
e 40 45
e 40 48
e 40 49
e 40 57
e 40 61
e 40 62
e 40 64
e 40 67
e 40 68
e 40 71
e 40 78
e 40 80
e 40 87
e 40 94
e 40 95
e 40 105
e 40 112
e 40 115
e 40 117
e 40 125
e 40 132
e 40 136
e 40 141
e 40 154
e 40 182
e 40 185
e 40 199
e 40 200
e 41 43
e 41 46
e 41 47
e 41 48
e 41 49
e 41 50
e 41 54
e 41 57
e 41 63
e 41 64
e 41 67
e 41 71
e 41 72
e 41 75
e 41 80
e 41 84
e 41 85
e 41 86
e 41 93
e 41 104
e 41 110
e 41 111
e 41 134
e 41 144
e 41 145
e 41 146
e 41 153
e 41 156
e 41 158
e 41 160
e 41 161
e 41 162
e 41 166
e 41 167
e 42 50
e 42 61
e 42 66
e 42 71
e 42 72
e 42 75
e 42 78
e 42 79
e 42 88
e 42 92
e 42 94
e 42 96
e 42 97
e 42 99
e 42 101
e 42 102
e 42 104
e 42 109
e 42 119
e 42 122
e 42 124
e 42 140
e 42 145
e 42 147
e 42 148
e 42 155
e 42 156
e 42 160
e 42 169
e 42 170
e 42 173
e 42 174
e 42 181
e 42 191
e 42 195
e 42 199
e 43 44
e 43 50
e 43 59
e 43 62
e 43 65
e 43 66
e 43 67
e 43 87
e 43 90
e 43 104
e 43 112
e 43 123
e 43 132
e 43 142
e 43 153
e 43 165
e 43 166
e 43 169
e 44 48
e 44 52
e 44 60
e 44 72
e 44 74
e 44 86
e 44 90
e 44 91
e 44 99
e 44 100
e 44 107
e 44 108
e 44 115
e 44 118
e 44 119
e 44 126
e 44 130
e 44 144
e 44 149
e 44 152
e 44 155
e 44 164
e 44 167
e 44 169
e 44 171
e 44 173
e 44 181
e 44 184
e 44 196
e 45 46
e 45 48
e 45 49
e 45 50
e 45 51
e 45 52
e 45 54
e 45 59
e 45 72
e 45 79
e 45 83
e 45 85
e 45 89
e 45 92
e 45 120
e 45 122
e 45 141
e 45 156
e 45 159
e 45 165
e 45 168
e 45 175
e 46 50
e 46 52
e 46 56
e 46 58
e 46 69
e 46 74
e 46 76
e 46 77
e 46 79
e 46 82
e 46 86
e 46 90
e 46 91
e 46 101
e 46 102
e 46 118
e 46 135
e 46 141
e 46 155
e 46 166
e 46 170
e 46 172
e 46 187
e 46 199
e 47 51
e 47 53
e 47 58
e 47 81
e 47 92
e 47 97
e 47 99
e 47 104
e 47 108
e 47 117
e 47 129
e 47 140
e 47 165
e 47 167
e 47 186
e 48 55
e 48 63
e 48 67
e 48 86
e 48 99
e 48 117
e 48 119
e 48 135
e 48 152
e 48 175
e 48 197
e 49 57
e 49 60
e 49 64
e 49 91
e 49 100
e 49 117
e 49 120
e 49 132
e 49 152
e 49 158
e 49 201
e 50 51
e 50 52
e 50 60
e 50 65
e 50 69
e 50 72
e 50 73
e 50 76
e 50 83
e 50 93
e 50 101
e 50 104
e 50 105
e 50 115
e 50 119
e 50 131
e 50 132
e 50 144
e 50 155
e 50 171
e 50 173
e 50 179
e 50 181
e 50 186
e 50 191
e 50 194
e 50 200
e 51 53
e 51 54
e 51 55
e 51 56
e 51 59
e 51 63
e 51 68
e 51 74
e 51 77
e 51 83
e 51 87
e 51 96
e 51 103
e 51 105
e 51 113
e 51 115
e 51 118
e 51 126
e 51 138
e 51 148
e 51 155
e 51 159
e 51 162
e 51 173
e 51 195
e 52 58
e 52 59
e 52 63
e 52 69
e 52 76
e 52 96
e 52 102
e 52 105
e 52 109
e 52 112
e 52 123
e 52 137
e 52 141
e 52 150
e 52 153
e 52 164
e 52 166
e 52 167
e 52 168
e 52 178
e 52 197
e 52 201
e 53 55
e 53 58
e 53 62
e 53 68
e 53 70
e 53 85
e 53 87
e 53 89
e 53 94
e 53 98
e 53 111
e 53 125
e 53 130
e 53 133
e 53 141
e 53 154
e 53 160
e 53 162
e 53 169
e 53 178
e 53 180
e 53 197
e 53 200
e 54 59
e 54 66
e 54 70
e 54 71
e 54 73
e 54 75
e 54 80
e 54 91
e 54 107
e 54 117
e 54 141
e 54 145
e 54 160
e 54 162
e 54 167
e 54 175
e 54 195
e 54 196
e 55 57
e 55 59
e 55 60
e 55 61
e 55 62
e 55 64
e 55 65
e 55 74
e 55 77
e 55 78
e 55 84
e 55 89
e 55 93
e 55 96
e 55 99
e 55 126
e 55 132
e 55 141
e 55 151
e 55 158
e 55 161
e 55 166
e 55 180
e 55 191
e 56 57
e 56 60
e 56 65
e 56 70
e 56 85
e 56 90
e 56 92
e 56 97
e 56 101
e 56 115
e 56 116
e 56 124
e 56 135
e 56 139
e 56 145
e 56 146
e 56 147
e 56 153
e 56 157
e 56 160
e 56 161
e 56 167
e 56 178
e 56 181
e 56 183
e 56 188
e 56 190
e 57 58
e 57 59
e 57 65
e 57 75
e 57 79
e 57 81
e 57 93
e 57 97
e 57 102
e 57 103
e 57 107
e 57 109
e 57 112
e 57 116
e 57 126
e 57 132
e 57 155
e 57 163
e 57 180
e 57 184
e 57 186
e 57 196
e 58 61
e 58 62
e 58 67
e 58 69
e 58 73
e 58 78
e 58 96
e 58 98
e 58 119
e 58 162
e 58 169
e 58 177
e 58 185
e 59 64
e 59 65
e 59 70
e 59 72
e 59 83
e 59 89
e 59 92
e 59 97
e 59 111
e 59 131
e 59 167
e 59 172
e 59 195
e 59 201
e 60 64
e 60 67
e 60 68
e 60 71
e 60 72
e 60 73
e 60 74
e 60 76
e 60 94
e 60 98
e 60 99
e 60 114
e 60 118
e 60 126
e 60 130
e 60 137
e 60 148
e 60 150
e 60 152
e 60 163
e 60 170
e 60 182
e 60 183
e 60 185
e 60 194
e 61 78
e 61 84
e 61 112
e 61 116
e 61 122
e 61 123
e 61 124
e 61 125
e 61 137
e 61 150
e 61 152
e 61 154
e 61 159
e 61 180
e 61 184
e 61 192
e 62 64
e 62 67
e 62 72
e 62 75
e 62 79
e 62 97
e 62 115
e 62 158
e 63 69
e 63 92
e 63 98
e 63 107
e 63 119
e 63 123
e 63 128
e 63 131
e 63 136
e 63 155
e 63 169
e 63 177
e 63 179
e 63 180
e 63 182
e 63 183
e 64 65
e 64 67
e 64 68
e 64 76
e 64 77
e 64 81
e 64 82
e 64 83
e 64 86
e 64 88
e 64 92
e 64 93
e 64 96
e 64 102
e 64 104
e 64 110
e 64 111
e 64 119
e 64 121
e 64 125
e 64 127
e 64 128
e 64 133
e 64 146
e 64 159
e 64 163
e 64 177
e 64 183
e 64 184
e 64 193
e 64 199
e 65 72
e 65 73
e 65 74
e 65 88
e 65 95
e 65 99
e 65 108
e 65 121
e 65 130
e 65 133
e 65 139
e 65 149
e 65 178
e 65 182
e 65 198
e 66 70
e 66 80
e 66 81
e 66 89
e 66 111
e 66 113
e 66 114
e 66 120
e 66 128
e 66 130
e 66 159
e 66 162
e 66 172
e 66 181
e 66 188
e 66 193
e 66 201
e 67 84
e 67 95
e 67 97
e 67 101
e 67 108
e 67 109
e 67 114
e 67 116
e 67 123
e 67 129
e 67 131
e 67 132
e 67 135
e 67 149
e 67 158
e 67 166
e 67 172
e 67 179
e 67 183
e 67 195
e 67 200
e 68 76
e 68 89
e 68 113
e 68 116
e 68 129
e 68 142
e 68 144
e 68 161
e 68 170
e 68 175
e 68 178
e 68 197
e 69 71
e 69 74
e 69 90
e 69 110
e 69 122
e 69 123
e 69 131
e 69 146
e 69 157
e 69 158
e 69 159
e 69 160
e 69 180
e 69 197
e 70 73
e 70 82
e 70 119
e 70 140
e 70 145
e 70 161
e 70 168
e 70 171
e 70 201
e 71 80
e 71 96
e 71 111
e 71 143
e 71 146
e 71 147
e 71 148
e 71 154
e 71 156
e 71 179
e 71 189
e 71 198
e 72 74
e 72 91
e 72 94
e 72 104
e 72 110
e 72 113
e 72 114
e 72 115
e 72 124
e 72 153
e 72 156
e 72 158
e 72 167
e 72 170
e 72 184
e 72 186
e 72 188
e 72 191
e 72 194
e 72 200
e 73 74
e 73 80
e 73 98
e 73 100
e 73 108
e 73 120
e 73 123
e 73 141
e 73 164
e 73 182
e 73 192
e 73 199
e 73 200
e 74 75
e 74 80
e 74 92
e 74 105
e 74 106
e 74 113
e 74 136
e 74 146
e 74 165
e 74 187
e 74 193
e 74 194
e 74 196
e 75 81
e 75 107
e 75 121
e 75 148
e 75 154
e 75 164
e 75 177
e 75 186
e 75 194
e 75 200
e 76 86
e 76 90
e 76 92
e 76 94
e 76 99
e 76 106
e 76 111
e 76 114
e 76 119
e 76 150
e 76 153
e 76 160
e 76 168
e 76 172
e 76 175
e 76 177
e 77 78
e 77 120
e 77 121
e 77 122
e 77 124
e 77 128
e 77 134
e 77 143
e 77 148
e 77 149
e 77 165
e 77 179
e 77 182
e 77 198
e 78 82
e 78 84
e 78 85
e 78 93
e 78 100
e 78 106
e 78 120
e 78 123
e 78 132
e 78 135
e 78 154
e 78 192
e 78 197
e 79 86
e 79 89
e 79 104
e 79 105
e 79 112
e 79 122
e 79 125
e 79 126
e 79 128
e 79 135
e 79 149
e 79 157
e 79 166
e 79 167
e 79 188
e 80 84
e 80 85
e 80 126
e 80 131
e 80 168
e 80 174
e 80 189
e 80 192
e 81 84
e 81 85
e 81 86
e 81 88
e 81 93
e 81 95
e 81 106
e 81 120
e 81 131
e 81 155
e 81 192
e 82 84
e 82 87
e 82 97
e 82 103
e 82 154
e 82 163
e 82 172
e 82 184
e 82 185
e 82 188
e 82 192
e 83 144
e 83 188
e 84 90
e 84 103
e 84 106
e 84 121
e 84 123
e 84 124
e 84 130
e 84 131
e 84 132
e 84 133
e 84 152
e 84 199
e 85 87
e 85 108
e 85 121
e 85 123
e 85 172
e 85 180
e 85 196
e 86 101
e 86 104
e 86 105
e 86 110
e 86 113
e 86 123
e 86 125
e 86 137
e 86 147
e 86 154
e 86 174
e 86 175
e 87 90
e 87 112
e 87 114
e 87 124
e 87 137
e 87 143
e 87 162
e 87 169
e 87 175
e 87 182
e 87 183
e 87 193
e 87 198
e 88 92
e 88 93
e 88 105
e 88 108
e 88 134
e 88 137
e 88 173
e 89 94
e 89 113
e 89 115
e 89 119
e 89 122
e 89 148
e 89 150
e 89 179
e 90 107
e 90 109
e 90 116
e 90 120
e 90 154
e 90 156
e 90 157
e 90 164
e 90 168
e 90 169
e 90 180
e 90 185
e 90 189
e 91 94
e 91 95
e 91 99
e 91 107
e 91 113
e 91 117
e 91 120
e 91 129
e 91 134
e 91 152
e 91 163
e 91 172
e 91 174
e 91 184
e 91 200
e 92 100
e 92 103
e 92 106
e 92 109
e 92 138
e 92 142
e 92 145
e 92 148
e 92 149
e 92 150
e 92 167
e 92 198
e 93 95
e 93 104
e 93 147
e 93 163
e 93 175
e 93 179
e 93 180
e 93 199
e 94 98
e 94 105
e 94 111
e 94 147
e 94 150
e 94 163
e 94 178
e 95 100
e 95 109
e 95 117
e 95 127
e 95 138
e 95 151
e 95 163
e 95 168
e 95 183
e 95 192
e 95 196
e 96 103
e 96 114
e 96 138
e 96 157
e 96 165
e 96 173
e 96 179
e 96 190
e 97 102
e 97 114
e 97 115
e 97 116
e 97 129
e 97 130
e 97 131
e 97 140
e 97 141
e 97 149
e 97 152
e 97 161
e 97 182
e 98 102
e 98 106
e 98 111
e 98 112
e 98 115
e 98 120
e 98 122
e 98 125
e 98 128
e 98 132
e 98 133
e 98 138
e 98 143
e 98 152
e 98 161
e 98 162
e 98 163
e 98 189
e 98 193
e 98 197
e 98 201
e 99 109
e 99 110
e 99 113
e 99 116
e 99 120
e 99 124
e 99 130
e 99 136
e 99 144
e 99 169
e 99 174
e 99 175
e 99 180
e 99 181
e 99 183
e 99 188
e 100 105
e 100 114
e 100 143
e 100 149
e 100 185
e 100 189
e 100 196
e 101 102
e 101 109
e 101 124
e 101 151
e 101 169
e 101 171
e 101 183
e 101 192
e 102 122
e 102 123
e 102 146
e 102 167
e 103 108
e 103 124
e 103 127
e 103 129
e 103 131
e 103 138
e 103 184
e 104 122
e 104 145
e 104 154
e 104 170
e 104 173
e 104 194
e 105 201
e 106 110
e 106 125
e 106 129
e 106 136
e 106 146
e 106 151
e 106 158
e 106 165
e 106 176
e 106 179
e 106 187
e 106 191
e 107 119
e 107 123
e 107 124
e 107 127
e 107 144
e 107 182
e 107 184
e 107 197
e 108 117
e 108 119
e 108 126
e 108 148
e 108 164
e 109 138
e 109 139
e 109 140
e 109 150
e 109 153
e 109 157
e 109 160
e 109 168
e 109 169
e 109 170
e 109 179
e 109 200
e 110 129
e 110 133
e 110 151
e 110 181
e 110 201
e 111 117
e 111 135
e 111 149
e 111 156
e 111 172
e 111 179
e 111 184
e 111 187
e 111 189
e 111 197
e 112 122
e 112 133
e 112 139
e 112 140
e 112 142
e 112 160
e 112 161
e 112 171
e 112 183
e 112 195
e 112 201
e 113 135
e 113 170
e 114 128
e 114 152
e 114 162
e 115 116
e 115 121
e 115 126
e 115 134
e 115 150
e 115 157
e 115 159
e 115 160
e 115 173
e 116 121
e 116 123
e 116 125
e 116 143
e 116 162
e 116 181
e 116 195
e 117 118
e 117 142
e 117 143
e 117 165
e 117 167
e 117 171
e 117 180
e 117 184
e 118 125
e 118 131
e 118 147
e 118 177
e 118 198
e 119 133
e 119 161
e 119 187
e 120 139
e 120 146
e 120 193
e 120 194
e 121 133
e 121 163
e 121 168
e 121 177
e 121 196
e 122 128
e 122 135
e 122 142
e 122 144
e 122 145
e 122 157
e 122 165
e 122 170
e 122 181
e 122 189
e 122 190
e 122 191
e 122 198
e 123 151
e 123 154
e 123 166
e 123 185
e 124 128
e 124 139
e 124 142
e 124 164
e 124 178
e 124 180
e 125 129
e 125 150
e 125 178
e 125 188
e 125 189
e 126 143
e 126 164
e 126 193
e 126 197
e 127 148
e 127 168
e 127 191
e 128 138
e 128 159
e 128 164
e 128 168
e 128 175
e 129 134
e 129 139
e 129 140
e 129 145
e 129 166
e 129 173
e 129 186
e 130 131
e 130 133
e 130 174
e 130 179
e 130 189
e 130 194
e 131 137
e 131 168
e 132 134
e 132 190
e 132 191
e 132 198
e 133 141
e 133 144
e 133 163
e 134 143
e 134 150
e 134 177
e 134 190
e 134 196
e 135 148
e 135 176
e 135 186
e 136 199
e 137 138
e 137 144
e 138 190
e 139 163
e 139 166
e 139 187
e 140 145
e 140 147
e 140 155
e 140 156
e 140 157
e 140 171
e 140 172
e 140 201
e 141 143
e 141 149
e 141 166
e 141 168
e 141 193
e 142 162
e 142 170
e 142 191
e 142 197
e 143 147
e 143 183
e 144 156
e 144 158
e 144 176
e 144 180
e 144 184
e 144 190
e 144 197
e 145 153
e 145 178
e 145 187
e 147 154
e 148 159
e 148 171
e 148 189
e 148 192
e 149 151
e 149 160
e 149 164
e 149 170
e 150 178
e 150 181
e 151 155
e 151 174
e 151 194
e 152 153
e 152 161
e 152 190
e 152 195
e 153 164
e 153 173
e 153 193
e 154 172
e 154 173
e 154 179
e 154 195
e 154 197
e 154 198
e 154 199
e 155 178
e 155 191
e 156 158
e 156 184
e 156 194
e 157 175
e 157 186
e 158 166
e 158 167
e 158 190
e 159 175
e 160 192
e 161 173
e 161 176
e 161 183
e 162 168
e 162 182
e 162 193
e 163 191
e 164 174
e 164 200
e 166 183
e 167 181
e 167 200
e 167 201
e 168 176
e 168 182
e 168 199
e 170 177
e 170 197
e 176 183
e 176 191
e 176 194
e 177 187
e 178 182
e 178 184
e 179 182
e 181 188
e 182 187
e 184 186
e 184 193
e 184 200
e 186 195
e 187 189
e 187 190
e 187 198
e 191 199
